(set-info :smt-lib-version 2.6)
(set-logic QF_LRA)
(set-info :source |
TLP-GP automated DTP to SMT-LIB encoding for planning
by F.Maris and P.Regnier, IRIT - Universite Paul Sabatier, Toulouse

|)
(set-info :category "industrial")
(set-info :status sat)
(declare-fun St_spy_variable () Real)
(declare-fun t_Init_0 () Real)
(declare-fun t_Goal_4 () Real)
(declare-fun t_C_rb_ga1_gc1_3 () Real)
(declare-fun t_A_ra_ga2_gb1_1 () Real)
(declare-fun t_B_ra_rb_gb2_2 () Real)
(declare-fun t_C_rb_ga1_gc2_3 () Real)
(declare-fun t_A_ra_ga3_gb1_1 () Real)
(declare-fun t_B_ra_rb_gb3_2 () Real)
(declare-fun t_C_rb_ga1_gc3_3 () Real)
(declare-fun t_A_ra_ga4_gb1_1 () Real)
(declare-fun t_B_ra_rb_gb4_2 () Real)
(declare-fun t_C_rb_ga1_gc4_3 () Real)
(declare-fun t_A_ra_ga5_gb1_1 () Real)
(declare-fun t_B_ra_rb_gb5_2 () Real)
(declare-fun t_C_rb_ga1_gc5_3 () Real)
(declare-fun t_A_ra_ga6_gb1_1 () Real)
(declare-fun t_B_ra_rb_gb6_2 () Real)
(declare-fun t_C_rb_ga1_gc6_3 () Real)
(declare-fun t_A_ra_ga7_gb1_1 () Real)
(declare-fun t_B_ra_rb_gb7_2 () Real)
(declare-fun t_C_rb_ga1_gc7_3 () Real)
(declare-fun t_A_ra_ga8_gb1_1 () Real)
(declare-fun t_B_ra_rb_gb8_2 () Real)
(declare-fun t_C_rb_ga1_gc8_3 () Real)
(declare-fun t_A_ra_ga9_gb1_1 () Real)
(declare-fun t_B_ra_rb_gb9_2 () Real)
(declare-fun t_C_rb_ga1_gc9_3 () Real)
(declare-fun t_A_ra_ga10_gb1_1 () Real)
(declare-fun t_B_ra_rb_gb10_2 () Real)
(declare-fun t_A_ra_ga1_gb1_1 () Real)
(declare-fun t_B_ra_rb_gb1_2 () Real)
(declare-fun t_C_rb_ga1_gc10_3 () Real)
(assert (let ((?v_13 (- t_Goal_4 t_C_rb_ga1_gc1_3)) (?v_14 (- t_Goal_4 t_A_ra_ga2_gb1_1)) (?v_26 (- t_Goal_4 t_B_ra_rb_gb2_2)) (?v_28 (- t_Goal_4 t_C_rb_ga1_gc2_3)) (?v_29 (- t_Goal_4 t_A_ra_ga3_gb1_1)) (?v_31 (- t_Goal_4 t_B_ra_rb_gb3_2)) (?v_33 (- t_Goal_4 t_C_rb_ga1_gc3_3)) (?v_34 (- t_Goal_4 t_A_ra_ga4_gb1_1)) (?v_36 (- t_Goal_4 t_B_ra_rb_gb4_2)) (?v_38 (- t_Goal_4 t_C_rb_ga1_gc4_3)) (?v_39 (- t_Goal_4 t_A_ra_ga5_gb1_1)) (?v_41 (- t_Goal_4 t_B_ra_rb_gb5_2)) (?v_43 (- t_Goal_4 t_C_rb_ga1_gc5_3)) (?v_44 (- t_Goal_4 t_A_ra_ga6_gb1_1)) (?v_46 (- t_Goal_4 t_B_ra_rb_gb6_2)) (?v_48 (- t_Goal_4 t_C_rb_ga1_gc6_3)) (?v_49 (- t_Goal_4 t_A_ra_ga7_gb1_1)) (?v_51 (- t_Goal_4 t_B_ra_rb_gb7_2)) (?v_53 (- t_Goal_4 t_C_rb_ga1_gc7_3)) (?v_54 (- t_Goal_4 t_A_ra_ga8_gb1_1)) (?v_56 (- t_Goal_4 t_B_ra_rb_gb8_2)) (?v_58 (- t_Goal_4 t_C_rb_ga1_gc8_3)) (?v_59 (- t_Goal_4 t_A_ra_ga9_gb1_1)) (?v_61 (- t_Goal_4 t_B_ra_rb_gb9_2)) (?v_63 (- t_Goal_4 t_C_rb_ga1_gc9_3)) (?v_64 (- t_Goal_4 t_A_ra_ga10_gb1_1)) (?v_66 (- t_Goal_4 t_B_ra_rb_gb10_2)) (?v_0 (- t_Goal_4 t_A_ra_ga1_gb1_1)) (?v_1 (- t_Goal_4 t_B_ra_rb_gb1_2)) (?v_69 (- t_Goal_4 t_C_rb_ga1_gc10_3)) (?v_67 (- t_B_ra_rb_gb1_2 t_A_ra_ga1_gb1_1))) (let ((?v_15 (< ?v_67 5)) (?v_65 (- t_B_ra_rb_gb10_2 t_A_ra_ga1_gb1_1))) (let ((?v_16 (< ?v_65 5)) (?v_60 (- t_B_ra_rb_gb9_2 t_A_ra_ga1_gb1_1))) (let ((?v_17 (< ?v_60 5)) (?v_55 (- t_B_ra_rb_gb8_2 t_A_ra_ga1_gb1_1))) (let ((?v_18 (< ?v_55 5)) (?v_50 (- t_B_ra_rb_gb7_2 t_A_ra_ga1_gb1_1))) (let ((?v_19 (< ?v_50 5)) (?v_45 (- t_B_ra_rb_gb6_2 t_A_ra_ga1_gb1_1))) (let ((?v_20 (< ?v_45 5)) (?v_40 (- t_B_ra_rb_gb5_2 t_A_ra_ga1_gb1_1))) (let ((?v_21 (< ?v_40 5)) (?v_35 (- t_B_ra_rb_gb4_2 t_A_ra_ga1_gb1_1))) (let ((?v_22 (< ?v_35 5)) (?v_30 (- t_B_ra_rb_gb3_2 t_A_ra_ga1_gb1_1))) (let ((?v_23 (< ?v_30 5)) (?v_25 (- t_B_ra_rb_gb2_2 t_A_ra_ga1_gb1_1))) (let ((?v_24 (< ?v_25 5)) (?v_68 (- t_C_rb_ga1_gc10_3 t_B_ra_rb_gb1_2))) (let ((?v_2 (< ?v_68 4)) (?v_62 (- t_C_rb_ga1_gc9_3 t_B_ra_rb_gb1_2))) (let ((?v_3 (< ?v_62 4)) (?v_57 (- t_C_rb_ga1_gc8_3 t_B_ra_rb_gb1_2))) (let ((?v_4 (< ?v_57 4)) (?v_52 (- t_C_rb_ga1_gc7_3 t_B_ra_rb_gb1_2))) (let ((?v_5 (< ?v_52 4)) (?v_47 (- t_C_rb_ga1_gc6_3 t_B_ra_rb_gb1_2))) (let ((?v_6 (< ?v_47 4)) (?v_42 (- t_C_rb_ga1_gc5_3 t_B_ra_rb_gb1_2))) (let ((?v_7 (< ?v_42 4)) (?v_37 (- t_C_rb_ga1_gc4_3 t_B_ra_rb_gb1_2))) (let ((?v_8 (< ?v_37 4)) (?v_32 (- t_C_rb_ga1_gc3_3 t_B_ra_rb_gb1_2))) (let ((?v_9 (< ?v_32 4)) (?v_27 (- t_C_rb_ga1_gc2_3 t_B_ra_rb_gb1_2))) (let ((?v_10 (< ?v_27 4)) (?v_12 (- t_C_rb_ga1_gc1_3 t_B_ra_rb_gb1_2))) (let ((?v_11 (< ?v_12 4)) (?v_70 (- t_A_ra_ga10_gb1_1 t_A_ra_ga1_gb1_1))) (let ((?v_394 (< ?v_70 5)) (?v_393 (> ?v_70 5))) (let ((?v_167 (or ?v_394 ?v_393)) (?v_71 (- t_A_ra_ga9_gb1_1 t_A_ra_ga1_gb1_1))) (let ((?v_385 (< ?v_71 5)) (?v_384 (> ?v_71 5))) (let ((?v_168 (or ?v_385 ?v_384)) (?v_72 (- t_A_ra_ga8_gb1_1 t_A_ra_ga1_gb1_1))) (let ((?v_372 (< ?v_72 5)) (?v_371 (> ?v_72 5))) (let ((?v_169 (or ?v_372 ?v_371)) (?v_73 (- t_A_ra_ga7_gb1_1 t_A_ra_ga1_gb1_1))) (let ((?v_355 (< ?v_73 5)) (?v_354 (> ?v_73 5))) (let ((?v_170 (or ?v_355 ?v_354)) (?v_74 (- t_A_ra_ga6_gb1_1 t_A_ra_ga1_gb1_1))) (let ((?v_334 (< ?v_74 5)) (?v_333 (> ?v_74 5))) (let ((?v_171 (or ?v_334 ?v_333)) (?v_75 (- t_A_ra_ga5_gb1_1 t_A_ra_ga1_gb1_1))) (let ((?v_309 (< ?v_75 5)) (?v_308 (> ?v_75 5))) (let ((?v_172 (or ?v_309 ?v_308)) (?v_76 (- t_A_ra_ga4_gb1_1 t_A_ra_ga1_gb1_1))) (let ((?v_280 (< ?v_76 5)) (?v_279 (> ?v_76 5))) (let ((?v_173 (or ?v_280 ?v_279)) (?v_77 (- t_A_ra_ga3_gb1_1 t_A_ra_ga1_gb1_1))) (let ((?v_239 (< ?v_77 5)) (?v_238 (> ?v_77 5))) (let ((?v_174 (or ?v_239 ?v_238)) (?v_78 (- t_A_ra_ga2_gb1_1 t_A_ra_ga1_gb1_1))) (let ((?v_158 (< ?v_78 5)) (?v_157 (> ?v_78 5)) (?v_117 (< ?v_67 1)) (?v_79 (> ?v_67 1))) (let ((?v_175 (or ?v_117 ?v_79)) (?v_107 (< ?v_0 6)) (?v_80 (- t_A_ra_ga1_gb1_1 t_A_ra_ga10_gb1_1))) (let ((?v_194 (> ?v_80 5)) (?v_81 (- t_A_ra_ga1_gb1_1 t_A_ra_ga9_gb1_1))) (let ((?v_195 (> ?v_81 5)) (?v_82 (- t_A_ra_ga1_gb1_1 t_A_ra_ga8_gb1_1))) (let ((?v_196 (> ?v_82 5)) (?v_83 (- t_A_ra_ga1_gb1_1 t_A_ra_ga7_gb1_1))) (let ((?v_197 (> ?v_83 5)) (?v_84 (- t_A_ra_ga1_gb1_1 t_A_ra_ga6_gb1_1))) (let ((?v_198 (> ?v_84 5)) (?v_85 (- t_A_ra_ga1_gb1_1 t_A_ra_ga5_gb1_1))) (let ((?v_199 (> ?v_85 5)) (?v_86 (- t_A_ra_ga1_gb1_1 t_A_ra_ga4_gb1_1))) (let ((?v_200 (> ?v_86 5)) (?v_87 (- t_A_ra_ga1_gb1_1 t_A_ra_ga3_gb1_1))) (let ((?v_201 (> ?v_87 5)) (?v_88 (- t_A_ra_ga1_gb1_1 t_A_ra_ga2_gb1_1))) (let ((?v_147 (> ?v_88 5)) (?v_177 (- t_C_rb_ga1_gc10_3 t_A_ra_ga1_gb1_1))) (let ((?v_176 (< ?v_177 4)) (?v_179 (- t_C_rb_ga1_gc9_3 t_A_ra_ga1_gb1_1))) (let ((?v_178 (< ?v_179 4)) (?v_181 (- t_C_rb_ga1_gc8_3 t_A_ra_ga1_gb1_1))) (let ((?v_180 (< ?v_181 4)) (?v_183 (- t_C_rb_ga1_gc7_3 t_A_ra_ga1_gb1_1))) (let ((?v_182 (< ?v_183 4)) (?v_185 (- t_C_rb_ga1_gc6_3 t_A_ra_ga1_gb1_1))) (let ((?v_184 (< ?v_185 4)) (?v_187 (- t_C_rb_ga1_gc5_3 t_A_ra_ga1_gb1_1))) (let ((?v_186 (< ?v_187 4)) (?v_189 (- t_C_rb_ga1_gc4_3 t_A_ra_ga1_gb1_1))) (let ((?v_188 (< ?v_189 4)) (?v_191 (- t_C_rb_ga1_gc3_3 t_A_ra_ga1_gb1_1))) (let ((?v_190 (< ?v_191 4)) (?v_193 (- t_C_rb_ga1_gc2_3 t_A_ra_ga1_gb1_1))) (let ((?v_192 (< ?v_193 4)) (?v_145 (- t_C_rb_ga1_gc1_3 t_A_ra_ga1_gb1_1))) (let ((?v_146 (< ?v_145 4)) (?v_89 (- t_B_ra_rb_gb10_2 t_B_ra_rb_gb1_2))) (let ((?v_396 (< ?v_89 4)) (?v_395 (> ?v_89 4))) (let ((?v_108 (or ?v_396 ?v_395)) (?v_90 (- t_B_ra_rb_gb9_2 t_B_ra_rb_gb1_2))) (let ((?v_389 (< ?v_90 4)) (?v_388 (> ?v_90 4))) (let ((?v_109 (or ?v_389 ?v_388)) (?v_91 (- t_B_ra_rb_gb8_2 t_B_ra_rb_gb1_2))) (let ((?v_378 (< ?v_91 4)) (?v_377 (> ?v_91 4))) (let ((?v_110 (or ?v_378 ?v_377)) (?v_92 (- t_B_ra_rb_gb7_2 t_B_ra_rb_gb1_2))) (let ((?v_363 (< ?v_92 4)) (?v_362 (> ?v_92 4))) (let ((?v_111 (or ?v_363 ?v_362)) (?v_93 (- t_B_ra_rb_gb6_2 t_B_ra_rb_gb1_2))) (let ((?v_344 (< ?v_93 4)) (?v_343 (> ?v_93 4))) (let ((?v_112 (or ?v_344 ?v_343)) (?v_94 (- t_B_ra_rb_gb5_2 t_B_ra_rb_gb1_2))) (let ((?v_321 (< ?v_94 4)) (?v_320 (> ?v_94 4))) (let ((?v_113 (or ?v_321 ?v_320)) (?v_95 (- t_B_ra_rb_gb4_2 t_B_ra_rb_gb1_2))) (let ((?v_294 (< ?v_95 4)) (?v_293 (> ?v_95 4))) (let ((?v_114 (or ?v_294 ?v_293)) (?v_96 (- t_B_ra_rb_gb3_2 t_B_ra_rb_gb1_2))) (let ((?v_263 (< ?v_96 4)) (?v_262 (> ?v_96 4))) (let ((?v_115 (or ?v_263 ?v_262)) (?v_97 (- t_B_ra_rb_gb2_2 t_B_ra_rb_gb1_2))) (let ((?v_211 (< ?v_97 4)) (?v_210 (> ?v_97 4))) (let ((?v_116 (or ?v_211 ?v_210)) (?v_98 (- t_B_ra_rb_gb1_2 t_B_ra_rb_gb10_2))) (let ((?v_136 (> ?v_98 4)) (?v_99 (- t_B_ra_rb_gb1_2 t_B_ra_rb_gb9_2))) (let ((?v_137 (> ?v_99 4)) (?v_100 (- t_B_ra_rb_gb1_2 t_B_ra_rb_gb8_2))) (let ((?v_138 (> ?v_100 4)) (?v_101 (- t_B_ra_rb_gb1_2 t_B_ra_rb_gb7_2))) (let ((?v_139 (> ?v_101 4)) (?v_102 (- t_B_ra_rb_gb1_2 t_B_ra_rb_gb6_2))) (let ((?v_140 (> ?v_102 4)) (?v_103 (- t_B_ra_rb_gb1_2 t_B_ra_rb_gb5_2))) (let ((?v_141 (> ?v_103 4)) (?v_104 (- t_B_ra_rb_gb1_2 t_B_ra_rb_gb4_2))) (let ((?v_142 (> ?v_104 4)) (?v_105 (- t_B_ra_rb_gb1_2 t_B_ra_rb_gb3_2))) (let ((?v_143 (> ?v_105 4)) (?v_106 (- t_B_ra_rb_gb1_2 t_B_ra_rb_gb2_2))) (let ((?v_144 (> ?v_106 4)) (?v_119 (- t_B_ra_rb_gb1_2 t_A_ra_ga10_gb1_1))) (let ((?v_118 (> ?v_119 1)) (?v_121 (- t_B_ra_rb_gb1_2 t_A_ra_ga9_gb1_1))) (let ((?v_120 (> ?v_121 1)) (?v_123 (- t_B_ra_rb_gb1_2 t_A_ra_ga8_gb1_1))) (let ((?v_122 (> ?v_123 1)) (?v_125 (- t_B_ra_rb_gb1_2 t_A_ra_ga7_gb1_1))) (let ((?v_124 (> ?v_125 1)) (?v_127 (- t_B_ra_rb_gb1_2 t_A_ra_ga6_gb1_1))) (let ((?v_126 (> ?v_127 1)) (?v_129 (- t_B_ra_rb_gb1_2 t_A_ra_ga5_gb1_1))) (let ((?v_128 (> ?v_129 1)) (?v_131 (- t_B_ra_rb_gb1_2 t_A_ra_ga4_gb1_1))) (let ((?v_130 (> ?v_131 1)) (?v_133 (- t_B_ra_rb_gb1_2 t_A_ra_ga3_gb1_1))) (let ((?v_132 (> ?v_133 1)) (?v_135 (- t_B_ra_rb_gb1_2 t_A_ra_ga2_gb1_1))) (let ((?v_134 (> ?v_135 1)) (?v_220 (or ?v_79 ?v_117)) (?v_392 (< ?v_119 1))) (let ((?v_221 (or ?v_118 ?v_392)) (?v_383 (< ?v_121 1))) (let ((?v_222 (or ?v_120 ?v_383)) (?v_370 (< ?v_123 1))) (let ((?v_223 (or ?v_122 ?v_370)) (?v_353 (< ?v_125 1))) (let ((?v_224 (or ?v_124 ?v_353)) (?v_332 (< ?v_127 1))) (let ((?v_225 (or ?v_126 ?v_332)) (?v_307 (< ?v_129 1))) (let ((?v_226 (or ?v_128 ?v_307)) (?v_278 (< ?v_131 1))) (let ((?v_227 (or ?v_130 ?v_278)) (?v_237 (< ?v_133 1))) (let ((?v_228 (or ?v_132 ?v_237)) (?v_156 (< ?v_135 1)) (?v_148 (- t_A_ra_ga10_gb1_1 t_A_ra_ga2_gb1_1)) (?v_149 (- t_A_ra_ga9_gb1_1 t_A_ra_ga2_gb1_1)) (?v_150 (- t_A_ra_ga8_gb1_1 t_A_ra_ga2_gb1_1)) (?v_151 (- t_A_ra_ga7_gb1_1 t_A_ra_ga2_gb1_1)) (?v_152 (- t_A_ra_ga6_gb1_1 t_A_ra_ga2_gb1_1)) (?v_153 (- t_A_ra_ga5_gb1_1 t_A_ra_ga2_gb1_1)) (?v_154 (- t_A_ra_ga4_gb1_1 t_A_ra_ga2_gb1_1)) (?v_155 (- t_A_ra_ga3_gb1_1 t_A_ra_ga2_gb1_1)) (?v_159 (- t_A_ra_ga2_gb1_1 t_A_ra_ga10_gb1_1)) (?v_160 (- t_A_ra_ga2_gb1_1 t_A_ra_ga9_gb1_1)) (?v_161 (- t_A_ra_ga2_gb1_1 t_A_ra_ga8_gb1_1)) (?v_162 (- t_A_ra_ga2_gb1_1 t_A_ra_ga7_gb1_1)) (?v_163 (- t_A_ra_ga2_gb1_1 t_A_ra_ga6_gb1_1)) (?v_164 (- t_A_ra_ga2_gb1_1 t_A_ra_ga5_gb1_1)) (?v_165 (- t_A_ra_ga2_gb1_1 t_A_ra_ga4_gb1_1)) (?v_166 (- t_A_ra_ga2_gb1_1 t_A_ra_ga3_gb1_1)) (?v_247 (or ?v_176 (> ?v_177 4))) (?v_391 (> ?v_179 4))) (let ((?v_248 (or ?v_178 ?v_391)) (?v_381 (> ?v_181 4))) (let ((?v_249 (or ?v_180 ?v_381)) (?v_367 (> ?v_183 4))) (let ((?v_250 (or ?v_182 ?v_367)) (?v_349 (> ?v_185 4))) (let ((?v_251 (or ?v_184 ?v_349)) (?v_327 (> ?v_187 4))) (let ((?v_252 (or ?v_186 ?v_327)) (?v_301 (> ?v_189 4))) (let ((?v_253 (or ?v_188 ?v_301)) (?v_271 (> ?v_191 4))) (let ((?v_254 (or ?v_190 ?v_271)) (?v_229 (> ?v_193 4)) (?v_202 (- t_B_ra_rb_gb10_2 t_B_ra_rb_gb2_2)) (?v_203 (- t_B_ra_rb_gb9_2 t_B_ra_rb_gb2_2)) (?v_204 (- t_B_ra_rb_gb8_2 t_B_ra_rb_gb2_2)) (?v_205 (- t_B_ra_rb_gb7_2 t_B_ra_rb_gb2_2)) (?v_206 (- t_B_ra_rb_gb6_2 t_B_ra_rb_gb2_2)) (?v_207 (- t_B_ra_rb_gb5_2 t_B_ra_rb_gb2_2)) (?v_208 (- t_B_ra_rb_gb4_2 t_B_ra_rb_gb2_2)) (?v_209 (- t_B_ra_rb_gb3_2 t_B_ra_rb_gb2_2)) (?v_212 (- t_B_ra_rb_gb2_2 t_B_ra_rb_gb10_2)) (?v_213 (- t_B_ra_rb_gb2_2 t_B_ra_rb_gb9_2)) (?v_214 (- t_B_ra_rb_gb2_2 t_B_ra_rb_gb8_2)) (?v_215 (- t_B_ra_rb_gb2_2 t_B_ra_rb_gb7_2)) (?v_216 (- t_B_ra_rb_gb2_2 t_B_ra_rb_gb6_2)) (?v_217 (- t_B_ra_rb_gb2_2 t_B_ra_rb_gb5_2)) (?v_218 (- t_B_ra_rb_gb2_2 t_B_ra_rb_gb4_2)) (?v_219 (- t_B_ra_rb_gb2_2 t_B_ra_rb_gb3_2)) (?v_230 (- t_A_ra_ga10_gb1_1 t_A_ra_ga3_gb1_1)) (?v_231 (- t_A_ra_ga9_gb1_1 t_A_ra_ga3_gb1_1)) (?v_232 (- t_A_ra_ga8_gb1_1 t_A_ra_ga3_gb1_1)) (?v_233 (- t_A_ra_ga7_gb1_1 t_A_ra_ga3_gb1_1)) (?v_234 (- t_A_ra_ga6_gb1_1 t_A_ra_ga3_gb1_1)) (?v_235 (- t_A_ra_ga5_gb1_1 t_A_ra_ga3_gb1_1)) (?v_236 (- t_A_ra_ga4_gb1_1 t_A_ra_ga3_gb1_1)) (?v_240 (- t_A_ra_ga3_gb1_1 t_A_ra_ga10_gb1_1)) (?v_241 (- t_A_ra_ga3_gb1_1 t_A_ra_ga9_gb1_1)) (?v_242 (- t_A_ra_ga3_gb1_1 t_A_ra_ga8_gb1_1)) (?v_243 (- t_A_ra_ga3_gb1_1 t_A_ra_ga7_gb1_1)) (?v_244 (- t_A_ra_ga3_gb1_1 t_A_ra_ga6_gb1_1)) (?v_245 (- t_A_ra_ga3_gb1_1 t_A_ra_ga5_gb1_1)) (?v_246 (- t_A_ra_ga3_gb1_1 t_A_ra_ga4_gb1_1)) (?v_255 (- t_B_ra_rb_gb10_2 t_B_ra_rb_gb3_2)) (?v_256 (- t_B_ra_rb_gb9_2 t_B_ra_rb_gb3_2)) (?v_257 (- t_B_ra_rb_gb8_2 t_B_ra_rb_gb3_2)) (?v_258 (- t_B_ra_rb_gb7_2 t_B_ra_rb_gb3_2)) (?v_259 (- t_B_ra_rb_gb6_2 t_B_ra_rb_gb3_2)) (?v_260 (- t_B_ra_rb_gb5_2 t_B_ra_rb_gb3_2)) (?v_261 (- t_B_ra_rb_gb4_2 t_B_ra_rb_gb3_2)) (?v_264 (- t_B_ra_rb_gb3_2 t_B_ra_rb_gb10_2)) (?v_265 (- t_B_ra_rb_gb3_2 t_B_ra_rb_gb9_2)) (?v_266 (- t_B_ra_rb_gb3_2 t_B_ra_rb_gb8_2)) (?v_267 (- t_B_ra_rb_gb3_2 t_B_ra_rb_gb7_2)) (?v_268 (- t_B_ra_rb_gb3_2 t_B_ra_rb_gb6_2)) (?v_269 (- t_B_ra_rb_gb3_2 t_B_ra_rb_gb5_2)) (?v_270 (- t_B_ra_rb_gb3_2 t_B_ra_rb_gb4_2)) (?v_272 (- t_A_ra_ga10_gb1_1 t_A_ra_ga4_gb1_1)) (?v_273 (- t_A_ra_ga9_gb1_1 t_A_ra_ga4_gb1_1)) (?v_274 (- t_A_ra_ga8_gb1_1 t_A_ra_ga4_gb1_1)) (?v_275 (- t_A_ra_ga7_gb1_1 t_A_ra_ga4_gb1_1)) (?v_276 (- t_A_ra_ga6_gb1_1 t_A_ra_ga4_gb1_1)) (?v_277 (- t_A_ra_ga5_gb1_1 t_A_ra_ga4_gb1_1)) (?v_281 (- t_A_ra_ga4_gb1_1 t_A_ra_ga10_gb1_1)) (?v_282 (- t_A_ra_ga4_gb1_1 t_A_ra_ga9_gb1_1)) (?v_283 (- t_A_ra_ga4_gb1_1 t_A_ra_ga8_gb1_1)) (?v_284 (- t_A_ra_ga4_gb1_1 t_A_ra_ga7_gb1_1)) (?v_285 (- t_A_ra_ga4_gb1_1 t_A_ra_ga6_gb1_1)) (?v_286 (- t_A_ra_ga4_gb1_1 t_A_ra_ga5_gb1_1)) (?v_287 (- t_B_ra_rb_gb10_2 t_B_ra_rb_gb4_2)) (?v_288 (- t_B_ra_rb_gb9_2 t_B_ra_rb_gb4_2)) (?v_289 (- t_B_ra_rb_gb8_2 t_B_ra_rb_gb4_2)) (?v_290 (- t_B_ra_rb_gb7_2 t_B_ra_rb_gb4_2)) (?v_291 (- t_B_ra_rb_gb6_2 t_B_ra_rb_gb4_2)) (?v_292 (- t_B_ra_rb_gb5_2 t_B_ra_rb_gb4_2)) (?v_295 (- t_B_ra_rb_gb4_2 t_B_ra_rb_gb10_2)) (?v_296 (- t_B_ra_rb_gb4_2 t_B_ra_rb_gb9_2)) (?v_297 (- t_B_ra_rb_gb4_2 t_B_ra_rb_gb8_2)) (?v_298 (- t_B_ra_rb_gb4_2 t_B_ra_rb_gb7_2)) (?v_299 (- t_B_ra_rb_gb4_2 t_B_ra_rb_gb6_2)) (?v_300 (- t_B_ra_rb_gb4_2 t_B_ra_rb_gb5_2)) (?v_302 (- t_A_ra_ga10_gb1_1 t_A_ra_ga5_gb1_1)) (?v_303 (- t_A_ra_ga9_gb1_1 t_A_ra_ga5_gb1_1)) (?v_304 (- t_A_ra_ga8_gb1_1 t_A_ra_ga5_gb1_1)) (?v_305 (- t_A_ra_ga7_gb1_1 t_A_ra_ga5_gb1_1)) (?v_306 (- t_A_ra_ga6_gb1_1 t_A_ra_ga5_gb1_1)) (?v_310 (- t_A_ra_ga5_gb1_1 t_A_ra_ga10_gb1_1)) (?v_311 (- t_A_ra_ga5_gb1_1 t_A_ra_ga9_gb1_1)) (?v_312 (- t_A_ra_ga5_gb1_1 t_A_ra_ga8_gb1_1)) (?v_313 (- t_A_ra_ga5_gb1_1 t_A_ra_ga7_gb1_1)) (?v_314 (- t_A_ra_ga5_gb1_1 t_A_ra_ga6_gb1_1)) (?v_315 (- t_B_ra_rb_gb10_2 t_B_ra_rb_gb5_2)) (?v_316 (- t_B_ra_rb_gb9_2 t_B_ra_rb_gb5_2)) (?v_317 (- t_B_ra_rb_gb8_2 t_B_ra_rb_gb5_2)) (?v_318 (- t_B_ra_rb_gb7_2 t_B_ra_rb_gb5_2)) (?v_319 (- t_B_ra_rb_gb6_2 t_B_ra_rb_gb5_2)) (?v_322 (- t_B_ra_rb_gb5_2 t_B_ra_rb_gb10_2)) (?v_323 (- t_B_ra_rb_gb5_2 t_B_ra_rb_gb9_2)) (?v_324 (- t_B_ra_rb_gb5_2 t_B_ra_rb_gb8_2)) (?v_325 (- t_B_ra_rb_gb5_2 t_B_ra_rb_gb7_2)) (?v_326 (- t_B_ra_rb_gb5_2 t_B_ra_rb_gb6_2)) (?v_328 (- t_A_ra_ga10_gb1_1 t_A_ra_ga6_gb1_1)) (?v_329 (- t_A_ra_ga9_gb1_1 t_A_ra_ga6_gb1_1)) (?v_330 (- t_A_ra_ga8_gb1_1 t_A_ra_ga6_gb1_1)) (?v_331 (- t_A_ra_ga7_gb1_1 t_A_ra_ga6_gb1_1)) (?v_335 (- t_A_ra_ga6_gb1_1 t_A_ra_ga10_gb1_1)) (?v_336 (- t_A_ra_ga6_gb1_1 t_A_ra_ga9_gb1_1)) (?v_337 (- t_A_ra_ga6_gb1_1 t_A_ra_ga8_gb1_1)) (?v_338 (- t_A_ra_ga6_gb1_1 t_A_ra_ga7_gb1_1)) (?v_339 (- t_B_ra_rb_gb10_2 t_B_ra_rb_gb6_2)) (?v_340 (- t_B_ra_rb_gb9_2 t_B_ra_rb_gb6_2)) (?v_341 (- t_B_ra_rb_gb8_2 t_B_ra_rb_gb6_2)) (?v_342 (- t_B_ra_rb_gb7_2 t_B_ra_rb_gb6_2)) (?v_345 (- t_B_ra_rb_gb6_2 t_B_ra_rb_gb10_2)) (?v_346 (- t_B_ra_rb_gb6_2 t_B_ra_rb_gb9_2)) (?v_347 (- t_B_ra_rb_gb6_2 t_B_ra_rb_gb8_2)) (?v_348 (- t_B_ra_rb_gb6_2 t_B_ra_rb_gb7_2)) (?v_350 (- t_A_ra_ga10_gb1_1 t_A_ra_ga7_gb1_1)) (?v_351 (- t_A_ra_ga9_gb1_1 t_A_ra_ga7_gb1_1)) (?v_352 (- t_A_ra_ga8_gb1_1 t_A_ra_ga7_gb1_1)) (?v_356 (- t_A_ra_ga7_gb1_1 t_A_ra_ga10_gb1_1)) (?v_357 (- t_A_ra_ga7_gb1_1 t_A_ra_ga9_gb1_1)) (?v_358 (- t_A_ra_ga7_gb1_1 t_A_ra_ga8_gb1_1)) (?v_359 (- t_B_ra_rb_gb10_2 t_B_ra_rb_gb7_2)) (?v_360 (- t_B_ra_rb_gb9_2 t_B_ra_rb_gb7_2)) (?v_361 (- t_B_ra_rb_gb8_2 t_B_ra_rb_gb7_2)) (?v_364 (- t_B_ra_rb_gb7_2 t_B_ra_rb_gb10_2)) (?v_365 (- t_B_ra_rb_gb7_2 t_B_ra_rb_gb9_2)) (?v_366 (- t_B_ra_rb_gb7_2 t_B_ra_rb_gb8_2)) (?v_368 (- t_A_ra_ga10_gb1_1 t_A_ra_ga8_gb1_1)) (?v_369 (- t_A_ra_ga9_gb1_1 t_A_ra_ga8_gb1_1)) (?v_373 (- t_A_ra_ga8_gb1_1 t_A_ra_ga10_gb1_1)) (?v_374 (- t_A_ra_ga8_gb1_1 t_A_ra_ga9_gb1_1)) (?v_375 (- t_B_ra_rb_gb10_2 t_B_ra_rb_gb8_2)) (?v_376 (- t_B_ra_rb_gb9_2 t_B_ra_rb_gb8_2)) (?v_379 (- t_B_ra_rb_gb8_2 t_B_ra_rb_gb10_2)) (?v_380 (- t_B_ra_rb_gb8_2 t_B_ra_rb_gb9_2)) (?v_382 (- t_A_ra_ga10_gb1_1 t_A_ra_ga9_gb1_1)) (?v_386 (- t_A_ra_ga9_gb1_1 t_A_ra_ga10_gb1_1)) (?v_387 (- t_B_ra_rb_gb10_2 t_B_ra_rb_gb9_2)) (?v_390 (- t_B_ra_rb_gb9_2 t_B_ra_rb_gb10_2))) (and (= St_spy_variable (+ 1 t_Init_0)) (>= t_Goal_4 t_Init_0) (>= (- t_C_rb_ga1_gc1_3 t_Init_0) 0) (>= ?v_13 1) (>= (- t_A_ra_ga2_gb1_1 t_Init_0) 0) (>= ?v_14 5) (>= (- t_B_ra_rb_gb2_2 t_Init_0) 0) (>= ?v_26 4) (>= (- t_C_rb_ga1_gc2_3 t_Init_0) 0) (>= ?v_28 1) (>= (- t_A_ra_ga3_gb1_1 t_Init_0) 0) (>= ?v_29 5) (>= (- t_B_ra_rb_gb3_2 t_Init_0) 0) (>= ?v_31 4) (>= (- t_C_rb_ga1_gc3_3 t_Init_0) 0) (>= ?v_33 1) (>= (- t_A_ra_ga4_gb1_1 t_Init_0) 0) (>= ?v_34 5) (>= (- t_B_ra_rb_gb4_2 t_Init_0) 0) (>= ?v_36 4) (>= (- t_C_rb_ga1_gc4_3 t_Init_0) 0) (>= ?v_38 1) (>= (- t_A_ra_ga5_gb1_1 t_Init_0) 0) (>= ?v_39 5) (>= (- t_B_ra_rb_gb5_2 t_Init_0) 0) (>= ?v_41 4) (>= (- t_C_rb_ga1_gc5_3 t_Init_0) 0) (>= ?v_43 1) (>= (- t_A_ra_ga6_gb1_1 t_Init_0) 0) (>= ?v_44 5) (>= (- t_B_ra_rb_gb6_2 t_Init_0) 0) (>= ?v_46 4) (>= (- t_C_rb_ga1_gc6_3 t_Init_0) 0) (>= ?v_48 1) (>= (- t_A_ra_ga7_gb1_1 t_Init_0) 0) (>= ?v_49 5) (>= (- t_B_ra_rb_gb7_2 t_Init_0) 0) (>= ?v_51 4) (>= (- t_C_rb_ga1_gc7_3 t_Init_0) 0) (>= ?v_53 1) (>= (- t_A_ra_ga8_gb1_1 t_Init_0) 0) (>= ?v_54 5) (>= (- t_B_ra_rb_gb8_2 t_Init_0) 0) (>= ?v_56 4) (>= (- t_C_rb_ga1_gc8_3 t_Init_0) 0) (>= ?v_58 1) (>= (- t_A_ra_ga9_gb1_1 t_Init_0) 0) (>= ?v_59 5) (>= (- t_B_ra_rb_gb9_2 t_Init_0) 0) (>= ?v_61 4) (>= (- t_C_rb_ga1_gc9_3 t_Init_0) 0) (>= ?v_63 1) (>= (- t_A_ra_ga10_gb1_1 t_Init_0) 0) (>= ?v_64 5) (>= (- t_B_ra_rb_gb10_2 t_Init_0) 0) (>= ?v_66 4) (>= (- t_A_ra_ga1_gb1_1 t_Init_0) 0) (>= ?v_0 5) (>= (- t_B_ra_rb_gb1_2 t_Init_0) 0) (>= ?v_1 4) (>= (- t_C_rb_ga1_gc10_3 t_Init_0) 0) (>= ?v_69 1) ?v_15 ?v_16 ?v_17 ?v_18 ?v_19 ?v_20 ?v_21 ?v_22 ?v_23 ?v_24 (>= ?v_0 6) ?v_2 ?v_3 ?v_4 ?v_5 ?v_6 ?v_7 ?v_8 ?v_9 ?v_10 ?v_11 (>= ?v_1 5) ?v_2 ?v_3 ?v_4 ?v_5 ?v_6 ?v_7 ?v_8 ?v_9 ?v_10 ?v_11 ?v_11 (>= ?v_12 0) (>= ?v_13 2) (>= ?v_14 6) ?v_15 ?v_16 ?v_17 ?v_18 ?v_19 ?v_20 ?v_21 ?v_22 ?v_23 ?v_24 ?v_24 (>= ?v_25 0) (>= ?v_26 5) ?v_2 ?v_3 ?v_4 ?v_5 ?v_6 ?v_7 ?v_8 ?v_9 ?v_10 ?v_10 (>= ?v_27 0) (>= ?v_28 2) (>= ?v_29 6) ?v_15 ?v_16 ?v_17 ?v_18 ?v_19 ?v_20 ?v_21 ?v_22 ?v_23 ?v_23 (>= ?v_30 0) (>= ?v_31 5) ?v_2 ?v_3 ?v_4 ?v_5 ?v_6 ?v_7 ?v_8 ?v_9 ?v_9 (>= ?v_32 0) (>= ?v_33 2) (>= ?v_34 6) ?v_15 ?v_16 ?v_17 ?v_18 ?v_19 ?v_20 ?v_21 ?v_22 ?v_22 (>= ?v_35 0) (>= ?v_36 5) ?v_2 ?v_3 ?v_4 ?v_5 ?v_6 ?v_7 ?v_8 ?v_8 (>= ?v_37 0) (>= ?v_38 2) (>= ?v_39 6) ?v_15 ?v_16 ?v_17 ?v_18 ?v_19 ?v_20 ?v_21 ?v_21 (>= ?v_40 0) (>= ?v_41 5) ?v_2 ?v_3 ?v_4 ?v_5 ?v_6 ?v_7 ?v_7 (>= ?v_42 0) (>= ?v_43 2) (>= ?v_44 6) ?v_15 ?v_16 ?v_17 ?v_18 ?v_19 ?v_20 ?v_20 (>= ?v_45 0) (>= ?v_46 5) ?v_2 ?v_3 ?v_4 ?v_5 ?v_6 ?v_6 (>= ?v_47 0) (>= ?v_48 2) (>= ?v_49 6) ?v_15 ?v_16 ?v_17 ?v_18 ?v_19 ?v_19 (>= ?v_50 0) (>= ?v_51 5) ?v_2 ?v_3 ?v_4 ?v_5 ?v_5 (>= ?v_52 0) (>= ?v_53 2) (>= ?v_54 6) ?v_15 ?v_16 ?v_17 ?v_18 ?v_18 (>= ?v_55 0) (>= ?v_56 5) ?v_2 ?v_3 ?v_4 ?v_4 (>= ?v_57 0) (>= ?v_58 2) (>= ?v_59 6) ?v_15 ?v_16 ?v_17 ?v_17 (>= ?v_60 0) (>= ?v_61 5) ?v_2 ?v_3 ?v_3 (>= ?v_62 0) (>= ?v_63 2) (>= ?v_64 6) ?v_15 ?v_16 ?v_16 (>= ?v_65 0) (>= ?v_66 5) ?v_15 (>= ?v_67 0) ?v_2 (>= ?v_68 0) (>= ?v_69 2) ?v_167 ?v_168 ?v_169 ?v_170 ?v_171 ?v_172 ?v_173 ?v_174 (or ?v_158 ?v_157) ?v_175 (or ?v_107 ?v_79) (or ?v_194 (< ?v_80 5)) (or ?v_195 (< ?v_81 5)) (or ?v_196 (< ?v_82 5)) (or ?v_197 (< ?v_83 5)) (or ?v_198 (< ?v_84 5)) (or ?v_199 (< ?v_85 5)) (or ?v_200 (< ?v_86 5)) (or ?v_201 (< ?v_87 5)) (or ?v_147 (< ?v_88 5)) (or ?v_176 (< ?v_69 2)) (or ?v_178 (< ?v_63 2)) (or ?v_180 (< ?v_58 2)) (or ?v_182 (< ?v_53 2)) (or ?v_184 (< ?v_48 2)) (or ?v_186 (< ?v_43 2)) (or ?v_188 (< ?v_38 2)) (or ?v_190 (< ?v_33 2)) (or ?v_192 (< ?v_28 2)) (or ?v_146 (< ?v_13 2)) ?v_108 ?v_109 ?v_110 ?v_111 ?v_112 ?v_113 ?v_114 ?v_115 ?v_116 (or ?v_136 (< ?v_98 4)) (or ?v_137 (< ?v_99 4)) (or ?v_138 (< ?v_100 4)) (or ?v_139 (< ?v_101 4)) (or ?v_140 (< ?v_102 4)) (or ?v_141 (< ?v_103 4)) (or ?v_142 (< ?v_104 4)) (or ?v_143 (< ?v_105 4)) (or ?v_144 (< ?v_106 4)) (or ?v_79 ?v_107) (or ?v_118 (< ?v_64 6)) (or ?v_120 (< ?v_59 6)) (or ?v_122 (< ?v_54 6)) (or ?v_124 (< ?v_49 6)) (or ?v_126 (< ?v_44 6)) (or ?v_128 (< ?v_39 6)) (or ?v_130 (< ?v_34 6)) (or ?v_132 (< ?v_29 6)) (or ?v_134 (< ?v_14 6)) ?v_108 ?v_109 ?v_110 ?v_111 ?v_112 ?v_113 ?v_114 ?v_115 ?v_116 ?v_220 ?v_221 ?v_222 ?v_223 ?v_224 ?v_225 ?v_226 ?v_227 ?v_228 (or ?v_134 ?v_156) (or ?v_136 (< (- t_C_rb_ga1_gc1_3 t_B_ra_rb_gb10_2) 4)) (or ?v_137 (< (- t_C_rb_ga1_gc1_3 t_B_ra_rb_gb9_2) 4)) (or ?v_138 (< (- t_C_rb_ga1_gc1_3 t_B_ra_rb_gb8_2) 4)) (or ?v_139 (< (- t_C_rb_ga1_gc1_3 t_B_ra_rb_gb7_2) 4)) (or ?v_140 (< (- t_C_rb_ga1_gc1_3 t_B_ra_rb_gb6_2) 4)) (or ?v_141 (< (- t_C_rb_ga1_gc1_3 t_B_ra_rb_gb5_2) 4)) (or ?v_142 (< (- t_C_rb_ga1_gc1_3 t_B_ra_rb_gb4_2) 4)) (or ?v_143 (< (- t_C_rb_ga1_gc1_3 t_B_ra_rb_gb3_2) 4)) (or ?v_144 (< (- t_C_rb_ga1_gc1_3 t_B_ra_rb_gb2_2) 4)) (or (> ?v_145 4) ?v_146) (or (< ?v_135 5) ?v_147) (or (< (- t_B_ra_rb_gb10_2 t_A_ra_ga2_gb1_1) 5) ?v_147) (or (< ?v_148 5) (> ?v_148 5)) (or (< (- t_B_ra_rb_gb9_2 t_A_ra_ga2_gb1_1) 5) ?v_147) (or (< ?v_149 5) (> ?v_149 5)) (or (< (- t_B_ra_rb_gb8_2 t_A_ra_ga2_gb1_1) 5) ?v_147) (or (< ?v_150 5) (> ?v_150 5)) (or (< (- t_B_ra_rb_gb7_2 t_A_ra_ga2_gb1_1) 5) ?v_147) (or (< ?v_151 5) (> ?v_151 5)) (or (< (- t_B_ra_rb_gb6_2 t_A_ra_ga2_gb1_1) 5) ?v_147) (or (< ?v_152 5) (> ?v_152 5)) (or (< (- t_B_ra_rb_gb5_2 t_A_ra_ga2_gb1_1) 5) ?v_147) (or (< ?v_153 5) (> ?v_153 5)) (or (< (- t_B_ra_rb_gb4_2 t_A_ra_ga2_gb1_1) 5) ?v_147) (or (< ?v_154 5) (> ?v_154 5)) (or (< (- t_B_ra_rb_gb3_2 t_A_ra_ga2_gb1_1) 5) ?v_147) (or (< ?v_155 5) (> ?v_155 5)) (or (< (- t_B_ra_rb_gb2_2 t_A_ra_ga2_gb1_1) 5) ?v_147) (or ?v_156 ?v_134) (or ?v_157 ?v_158) (or (> ?v_159 5) (< ?v_159 5)) (or (> ?v_160 5) (< ?v_160 5)) (or (> ?v_161 5) (< ?v_161 5)) (or (> ?v_162 5) (< ?v_162 5)) (or (> ?v_163 5) (< ?v_163 5)) (or (> ?v_164 5) (< ?v_164 5)) (or (> ?v_165 5) (< ?v_165 5)) (or (> ?v_166 5) (< ?v_166 5)) ?v_167 ?v_168 ?v_169 ?v_170 ?v_171 ?v_172 ?v_173 ?v_174 ?v_175 ?v_247 ?v_248 ?v_249 ?v_250 ?v_251 ?v_252 ?v_253 ?v_254 (or ?v_192 ?v_229) (or ?v_194 (< (- t_B_ra_rb_gb2_2 t_A_ra_ga10_gb1_1) 5)) (or ?v_195 (< (- t_B_ra_rb_gb2_2 t_A_ra_ga9_gb1_1) 5)) (or ?v_196 (< (- t_B_ra_rb_gb2_2 t_A_ra_ga8_gb1_1) 5)) (or ?v_197 (< (- t_B_ra_rb_gb2_2 t_A_ra_ga7_gb1_1) 5)) (or ?v_198 (< (- t_B_ra_rb_gb2_2 t_A_ra_ga6_gb1_1) 5)) (or ?v_199 (< (- t_B_ra_rb_gb2_2 t_A_ra_ga5_gb1_1) 5)) (or ?v_200 (< (- t_B_ra_rb_gb2_2 t_A_ra_ga4_gb1_1) 5)) (or ?v_201 (< (- t_B_ra_rb_gb2_2 t_A_ra_ga3_gb1_1) 5)) (or (< (- t_C_rb_ga1_gc10_3 t_B_ra_rb_gb2_2) 4) ?v_144) (or (< ?v_202 4) (> ?v_202 4)) (or (< (- t_C_rb_ga1_gc9_3 t_B_ra_rb_gb2_2) 4) ?v_144) (or (< ?v_203 4) (> ?v_203 4)) (or (< (- t_C_rb_ga1_gc8_3 t_B_ra_rb_gb2_2) 4) ?v_144) (or (< ?v_204 4) (> ?v_204 4)) (or (< (- t_C_rb_ga1_gc7_3 t_B_ra_rb_gb2_2) 4) ?v_144) (or (< ?v_205 4) (> ?v_205 4)) (or (< (- t_C_rb_ga1_gc6_3 t_B_ra_rb_gb2_2) 4) ?v_144) (or (< ?v_206 4) (> ?v_206 4)) (or (< (- t_C_rb_ga1_gc5_3 t_B_ra_rb_gb2_2) 4) ?v_144) (or (< ?v_207 4) (> ?v_207 4)) (or (< (- t_C_rb_ga1_gc4_3 t_B_ra_rb_gb2_2) 4) ?v_144) (or (< ?v_208 4) (> ?v_208 4)) (or (< (- t_C_rb_ga1_gc3_3 t_B_ra_rb_gb2_2) 4) ?v_144) (or (< ?v_209 4) (> ?v_209 4)) (or (< (- t_C_rb_ga1_gc2_3 t_B_ra_rb_gb2_2) 4) ?v_144) (or ?v_210 ?v_211) (or (> ?v_212 4) (< ?v_212 4)) (or (> ?v_213 4) (< ?v_213 4)) (or (> ?v_214 4) (< ?v_214 4)) (or (> ?v_215 4) (< ?v_215 4)) (or (> ?v_216 4) (< ?v_216 4)) (or (> ?v_217 4) (< ?v_217 4)) (or (> ?v_218 4) (< ?v_218 4)) (or (> ?v_219 4) (< ?v_219 4)) ?v_108 ?v_109 ?v_110 ?v_111 ?v_112 ?v_113 ?v_114 ?v_115 ?v_220 ?v_221 ?v_222 ?v_223 ?v_224 ?v_225 ?v_226 ?v_227 ?v_228 (or ?v_136 (< (- t_C_rb_ga1_gc2_3 t_B_ra_rb_gb10_2) 4)) (or ?v_137 (< (- t_C_rb_ga1_gc2_3 t_B_ra_rb_gb9_2) 4)) (or ?v_138 (< (- t_C_rb_ga1_gc2_3 t_B_ra_rb_gb8_2) 4)) (or ?v_139 (< (- t_C_rb_ga1_gc2_3 t_B_ra_rb_gb7_2) 4)) (or ?v_140 (< (- t_C_rb_ga1_gc2_3 t_B_ra_rb_gb6_2) 4)) (or ?v_141 (< (- t_C_rb_ga1_gc2_3 t_B_ra_rb_gb5_2) 4)) (or ?v_142 (< (- t_C_rb_ga1_gc2_3 t_B_ra_rb_gb4_2) 4)) (or ?v_143 (< (- t_C_rb_ga1_gc2_3 t_B_ra_rb_gb3_2) 4)) (or ?v_229 ?v_192) (or (< ?v_133 5) ?v_201) (or (< (- t_B_ra_rb_gb10_2 t_A_ra_ga3_gb1_1) 5) ?v_201) (or (< ?v_230 5) (> ?v_230 5)) (or (< (- t_B_ra_rb_gb9_2 t_A_ra_ga3_gb1_1) 5) ?v_201) (or (< ?v_231 5) (> ?v_231 5)) (or (< (- t_B_ra_rb_gb8_2 t_A_ra_ga3_gb1_1) 5) ?v_201) (or (< ?v_232 5) (> ?v_232 5)) (or (< (- t_B_ra_rb_gb7_2 t_A_ra_ga3_gb1_1) 5) ?v_201) (or (< ?v_233 5) (> ?v_233 5)) (or (< (- t_B_ra_rb_gb6_2 t_A_ra_ga3_gb1_1) 5) ?v_201) (or (< ?v_234 5) (> ?v_234 5)) (or (< (- t_B_ra_rb_gb5_2 t_A_ra_ga3_gb1_1) 5) ?v_201) (or (< ?v_235 5) (> ?v_235 5)) (or (< (- t_B_ra_rb_gb4_2 t_A_ra_ga3_gb1_1) 5) ?v_201) (or (< ?v_236 5) (> ?v_236 5)) (or (< (- t_B_ra_rb_gb3_2 t_A_ra_ga3_gb1_1) 5) ?v_201) (or ?v_237 ?v_132) (or ?v_238 ?v_239) (or (> ?v_240 5) (< ?v_240 5)) (or (> ?v_241 5) (< ?v_241 5)) (or (> ?v_242 5) (< ?v_242 5)) (or (> ?v_243 5) (< ?v_243 5)) (or (> ?v_244 5) (< ?v_244 5)) (or (> ?v_245 5) (< ?v_245 5)) (or (> ?v_246 5) (< ?v_246 5)) ?v_167 ?v_168 ?v_169 ?v_170 ?v_171 ?v_172 ?v_173 ?v_175 ?v_247 ?v_248 ?v_249 ?v_250 ?v_251 ?v_252 ?v_253 ?v_254 (or ?v_194 (< (- t_B_ra_rb_gb3_2 t_A_ra_ga10_gb1_1) 5)) (or ?v_195 (< (- t_B_ra_rb_gb3_2 t_A_ra_ga9_gb1_1) 5)) (or ?v_196 (< (- t_B_ra_rb_gb3_2 t_A_ra_ga8_gb1_1) 5)) (or ?v_197 (< (- t_B_ra_rb_gb3_2 t_A_ra_ga7_gb1_1) 5)) (or ?v_198 (< (- t_B_ra_rb_gb3_2 t_A_ra_ga6_gb1_1) 5)) (or ?v_199 (< (- t_B_ra_rb_gb3_2 t_A_ra_ga5_gb1_1) 5)) (or ?v_200 (< (- t_B_ra_rb_gb3_2 t_A_ra_ga4_gb1_1) 5)) (or (< (- t_C_rb_ga1_gc10_3 t_B_ra_rb_gb3_2) 4) ?v_143) (or (< ?v_255 4) (> ?v_255 4)) (or (< (- t_C_rb_ga1_gc9_3 t_B_ra_rb_gb3_2) 4) ?v_143) (or (< ?v_256 4) (> ?v_256 4)) (or (< (- t_C_rb_ga1_gc8_3 t_B_ra_rb_gb3_2) 4) ?v_143) (or (< ?v_257 4) (> ?v_257 4)) (or (< (- t_C_rb_ga1_gc7_3 t_B_ra_rb_gb3_2) 4) ?v_143) (or (< ?v_258 4) (> ?v_258 4)) (or (< (- t_C_rb_ga1_gc6_3 t_B_ra_rb_gb3_2) 4) ?v_143) (or (< ?v_259 4) (> ?v_259 4)) (or (< (- t_C_rb_ga1_gc5_3 t_B_ra_rb_gb3_2) 4) ?v_143) (or (< ?v_260 4) (> ?v_260 4)) (or (< (- t_C_rb_ga1_gc4_3 t_B_ra_rb_gb3_2) 4) ?v_143) (or (< ?v_261 4) (> ?v_261 4)) (or (< (- t_C_rb_ga1_gc3_3 t_B_ra_rb_gb3_2) 4) ?v_143) (or ?v_262 ?v_263) (or (> ?v_264 4) (< ?v_264 4)) (or (> ?v_265 4) (< ?v_265 4)) (or (> ?v_266 4) (< ?v_266 4)) (or (> ?v_267 4) (< ?v_267 4)) (or (> ?v_268 4) (< ?v_268 4)) (or (> ?v_269 4) (< ?v_269 4)) (or (> ?v_270 4) (< ?v_270 4)) ?v_108 ?v_109 ?v_110 ?v_111 ?v_112 ?v_113 ?v_114 ?v_220 ?v_221 ?v_222 ?v_223 ?v_224 ?v_225 ?v_226 ?v_227 (or ?v_136 (< (- t_C_rb_ga1_gc3_3 t_B_ra_rb_gb10_2) 4)) (or ?v_137 (< (- t_C_rb_ga1_gc3_3 t_B_ra_rb_gb9_2) 4)) (or ?v_138 (< (- t_C_rb_ga1_gc3_3 t_B_ra_rb_gb8_2) 4)) (or ?v_139 (< (- t_C_rb_ga1_gc3_3 t_B_ra_rb_gb7_2) 4)) (or ?v_140 (< (- t_C_rb_ga1_gc3_3 t_B_ra_rb_gb6_2) 4)) (or ?v_141 (< (- t_C_rb_ga1_gc3_3 t_B_ra_rb_gb5_2) 4)) (or ?v_142 (< (- t_C_rb_ga1_gc3_3 t_B_ra_rb_gb4_2) 4)) (or ?v_271 ?v_190) (or (< ?v_131 5) ?v_200) (or (< (- t_B_ra_rb_gb10_2 t_A_ra_ga4_gb1_1) 5) ?v_200) (or (< ?v_272 5) (> ?v_272 5)) (or (< (- t_B_ra_rb_gb9_2 t_A_ra_ga4_gb1_1) 5) ?v_200) (or (< ?v_273 5) (> ?v_273 5)) (or (< (- t_B_ra_rb_gb8_2 t_A_ra_ga4_gb1_1) 5) ?v_200) (or (< ?v_274 5) (> ?v_274 5)) (or (< (- t_B_ra_rb_gb7_2 t_A_ra_ga4_gb1_1) 5) ?v_200) (or (< ?v_275 5) (> ?v_275 5)) (or (< (- t_B_ra_rb_gb6_2 t_A_ra_ga4_gb1_1) 5) ?v_200) (or (< ?v_276 5) (> ?v_276 5)) (or (< (- t_B_ra_rb_gb5_2 t_A_ra_ga4_gb1_1) 5) ?v_200) (or (< ?v_277 5) (> ?v_277 5)) (or (< (- t_B_ra_rb_gb4_2 t_A_ra_ga4_gb1_1) 5) ?v_200) (or ?v_278 ?v_130) (or ?v_279 ?v_280) (or (> ?v_281 5) (< ?v_281 5)) (or (> ?v_282 5) (< ?v_282 5)) (or (> ?v_283 5) (< ?v_283 5)) (or (> ?v_284 5) (< ?v_284 5)) (or (> ?v_285 5) (< ?v_285 5)) (or (> ?v_286 5) (< ?v_286 5)) ?v_167 ?v_168 ?v_169 ?v_170 ?v_171 ?v_172 ?v_175 ?v_247 ?v_248 ?v_249 ?v_250 ?v_251 ?v_252 ?v_253 (or ?v_194 (< (- t_B_ra_rb_gb4_2 t_A_ra_ga10_gb1_1) 5)) (or ?v_195 (< (- t_B_ra_rb_gb4_2 t_A_ra_ga9_gb1_1) 5)) (or ?v_196 (< (- t_B_ra_rb_gb4_2 t_A_ra_ga8_gb1_1) 5)) (or ?v_197 (< (- t_B_ra_rb_gb4_2 t_A_ra_ga7_gb1_1) 5)) (or ?v_198 (< (- t_B_ra_rb_gb4_2 t_A_ra_ga6_gb1_1) 5)) (or ?v_199 (< (- t_B_ra_rb_gb4_2 t_A_ra_ga5_gb1_1) 5)) (or (< (- t_C_rb_ga1_gc10_3 t_B_ra_rb_gb4_2) 4) ?v_142) (or (< ?v_287 4) (> ?v_287 4)) (or (< (- t_C_rb_ga1_gc9_3 t_B_ra_rb_gb4_2) 4) ?v_142) (or (< ?v_288 4) (> ?v_288 4)) (or (< (- t_C_rb_ga1_gc8_3 t_B_ra_rb_gb4_2) 4) ?v_142) (or (< ?v_289 4) (> ?v_289 4)) (or (< (- t_C_rb_ga1_gc7_3 t_B_ra_rb_gb4_2) 4) ?v_142) (or (< ?v_290 4) (> ?v_290 4)) (or (< (- t_C_rb_ga1_gc6_3 t_B_ra_rb_gb4_2) 4) ?v_142) (or (< ?v_291 4) (> ?v_291 4)) (or (< (- t_C_rb_ga1_gc5_3 t_B_ra_rb_gb4_2) 4) ?v_142) (or (< ?v_292 4) (> ?v_292 4)) (or (< (- t_C_rb_ga1_gc4_3 t_B_ra_rb_gb4_2) 4) ?v_142) (or ?v_293 ?v_294) (or (> ?v_295 4) (< ?v_295 4)) (or (> ?v_296 4) (< ?v_296 4)) (or (> ?v_297 4) (< ?v_297 4)) (or (> ?v_298 4) (< ?v_298 4)) (or (> ?v_299 4) (< ?v_299 4)) (or (> ?v_300 4) (< ?v_300 4)) ?v_108 ?v_109 ?v_110 ?v_111 ?v_112 ?v_113 ?v_220 ?v_221 ?v_222 ?v_223 ?v_224 ?v_225 ?v_226 (or ?v_136 (< (- t_C_rb_ga1_gc4_3 t_B_ra_rb_gb10_2) 4)) (or ?v_137 (< (- t_C_rb_ga1_gc4_3 t_B_ra_rb_gb9_2) 4)) (or ?v_138 (< (- t_C_rb_ga1_gc4_3 t_B_ra_rb_gb8_2) 4)) (or ?v_139 (< (- t_C_rb_ga1_gc4_3 t_B_ra_rb_gb7_2) 4)) (or ?v_140 (< (- t_C_rb_ga1_gc4_3 t_B_ra_rb_gb6_2) 4)) (or ?v_141 (< (- t_C_rb_ga1_gc4_3 t_B_ra_rb_gb5_2) 4)) (or ?v_301 ?v_188) (or (< ?v_129 5) ?v_199) (or (< (- t_B_ra_rb_gb10_2 t_A_ra_ga5_gb1_1) 5) ?v_199) (or (< ?v_302 5) (> ?v_302 5)) (or (< (- t_B_ra_rb_gb9_2 t_A_ra_ga5_gb1_1) 5) ?v_199) (or (< ?v_303 5) (> ?v_303 5)) (or (< (- t_B_ra_rb_gb8_2 t_A_ra_ga5_gb1_1) 5) ?v_199) (or (< ?v_304 5) (> ?v_304 5)) (or (< (- t_B_ra_rb_gb7_2 t_A_ra_ga5_gb1_1) 5) ?v_199) (or (< ?v_305 5) (> ?v_305 5)) (or (< (- t_B_ra_rb_gb6_2 t_A_ra_ga5_gb1_1) 5) ?v_199) (or (< ?v_306 5) (> ?v_306 5)) (or (< (- t_B_ra_rb_gb5_2 t_A_ra_ga5_gb1_1) 5) ?v_199) (or ?v_307 ?v_128) (or ?v_308 ?v_309) (or (> ?v_310 5) (< ?v_310 5)) (or (> ?v_311 5) (< ?v_311 5)) (or (> ?v_312 5) (< ?v_312 5)) (or (> ?v_313 5) (< ?v_313 5)) (or (> ?v_314 5) (< ?v_314 5)) ?v_167 ?v_168 ?v_169 ?v_170 ?v_171 ?v_175 ?v_247 ?v_248 ?v_249 ?v_250 ?v_251 ?v_252 (or ?v_194 (< (- t_B_ra_rb_gb5_2 t_A_ra_ga10_gb1_1) 5)) (or ?v_195 (< (- t_B_ra_rb_gb5_2 t_A_ra_ga9_gb1_1) 5)) (or ?v_196 (< (- t_B_ra_rb_gb5_2 t_A_ra_ga8_gb1_1) 5)) (or ?v_197 (< (- t_B_ra_rb_gb5_2 t_A_ra_ga7_gb1_1) 5)) (or ?v_198 (< (- t_B_ra_rb_gb5_2 t_A_ra_ga6_gb1_1) 5)) (or (< (- t_C_rb_ga1_gc10_3 t_B_ra_rb_gb5_2) 4) ?v_141) (or (< ?v_315 4) (> ?v_315 4)) (or (< (- t_C_rb_ga1_gc9_3 t_B_ra_rb_gb5_2) 4) ?v_141) (or (< ?v_316 4) (> ?v_316 4)) (or (< (- t_C_rb_ga1_gc8_3 t_B_ra_rb_gb5_2) 4) ?v_141) (or (< ?v_317 4) (> ?v_317 4)) (or (< (- t_C_rb_ga1_gc7_3 t_B_ra_rb_gb5_2) 4) ?v_141) (or (< ?v_318 4) (> ?v_318 4)) (or (< (- t_C_rb_ga1_gc6_3 t_B_ra_rb_gb5_2) 4) ?v_141) (or (< ?v_319 4) (> ?v_319 4)) (or (< (- t_C_rb_ga1_gc5_3 t_B_ra_rb_gb5_2) 4) ?v_141) (or ?v_320 ?v_321) (or (> ?v_322 4) (< ?v_322 4)) (or (> ?v_323 4) (< ?v_323 4)) (or (> ?v_324 4) (< ?v_324 4)) (or (> ?v_325 4) (< ?v_325 4)) (or (> ?v_326 4) (< ?v_326 4)) ?v_108 ?v_109 ?v_110 ?v_111 ?v_112 ?v_220 ?v_221 ?v_222 ?v_223 ?v_224 ?v_225 (or ?v_136 (< (- t_C_rb_ga1_gc5_3 t_B_ra_rb_gb10_2) 4)) (or ?v_137 (< (- t_C_rb_ga1_gc5_3 t_B_ra_rb_gb9_2) 4)) (or ?v_138 (< (- t_C_rb_ga1_gc5_3 t_B_ra_rb_gb8_2) 4)) (or ?v_139 (< (- t_C_rb_ga1_gc5_3 t_B_ra_rb_gb7_2) 4)) (or ?v_140 (< (- t_C_rb_ga1_gc5_3 t_B_ra_rb_gb6_2) 4)) (or ?v_327 ?v_186) (or (< ?v_127 5) ?v_198) (or (< (- t_B_ra_rb_gb10_2 t_A_ra_ga6_gb1_1) 5) ?v_198) (or (< ?v_328 5) (> ?v_328 5)) (or (< (- t_B_ra_rb_gb9_2 t_A_ra_ga6_gb1_1) 5) ?v_198) (or (< ?v_329 5) (> ?v_329 5)) (or (< (- t_B_ra_rb_gb8_2 t_A_ra_ga6_gb1_1) 5) ?v_198) (or (< ?v_330 5) (> ?v_330 5)) (or (< (- t_B_ra_rb_gb7_2 t_A_ra_ga6_gb1_1) 5) ?v_198) (or (< ?v_331 5) (> ?v_331 5)) (or (< (- t_B_ra_rb_gb6_2 t_A_ra_ga6_gb1_1) 5) ?v_198) (or ?v_332 ?v_126) (or ?v_333 ?v_334) (or (> ?v_335 5) (< ?v_335 5)) (or (> ?v_336 5) (< ?v_336 5)) (or (> ?v_337 5) (< ?v_337 5)) (or (> ?v_338 5) (< ?v_338 5)) ?v_167 ?v_168 ?v_169 ?v_170 ?v_175 ?v_247 ?v_248 ?v_249 ?v_250 ?v_251 (or ?v_194 (< (- t_B_ra_rb_gb6_2 t_A_ra_ga10_gb1_1) 5)) (or ?v_195 (< (- t_B_ra_rb_gb6_2 t_A_ra_ga9_gb1_1) 5)) (or ?v_196 (< (- t_B_ra_rb_gb6_2 t_A_ra_ga8_gb1_1) 5)) (or ?v_197 (< (- t_B_ra_rb_gb6_2 t_A_ra_ga7_gb1_1) 5)) (or (< (- t_C_rb_ga1_gc10_3 t_B_ra_rb_gb6_2) 4) ?v_140) (or (< ?v_339 4) (> ?v_339 4)) (or (< (- t_C_rb_ga1_gc9_3 t_B_ra_rb_gb6_2) 4) ?v_140) (or (< ?v_340 4) (> ?v_340 4)) (or (< (- t_C_rb_ga1_gc8_3 t_B_ra_rb_gb6_2) 4) ?v_140) (or (< ?v_341 4) (> ?v_341 4)) (or (< (- t_C_rb_ga1_gc7_3 t_B_ra_rb_gb6_2) 4) ?v_140) (or (< ?v_342 4) (> ?v_342 4)) (or (< (- t_C_rb_ga1_gc6_3 t_B_ra_rb_gb6_2) 4) ?v_140) (or ?v_343 ?v_344) (or (> ?v_345 4) (< ?v_345 4)) (or (> ?v_346 4) (< ?v_346 4)) (or (> ?v_347 4) (< ?v_347 4)) (or (> ?v_348 4) (< ?v_348 4)) ?v_108 ?v_109 ?v_110 ?v_111 ?v_220 ?v_221 ?v_222 ?v_223 ?v_224 (or ?v_136 (< (- t_C_rb_ga1_gc6_3 t_B_ra_rb_gb10_2) 4)) (or ?v_137 (< (- t_C_rb_ga1_gc6_3 t_B_ra_rb_gb9_2) 4)) (or ?v_138 (< (- t_C_rb_ga1_gc6_3 t_B_ra_rb_gb8_2) 4)) (or ?v_139 (< (- t_C_rb_ga1_gc6_3 t_B_ra_rb_gb7_2) 4)) (or ?v_349 ?v_184) (or (< ?v_125 5) ?v_197) (or (< (- t_B_ra_rb_gb10_2 t_A_ra_ga7_gb1_1) 5) ?v_197) (or (< ?v_350 5) (> ?v_350 5)) (or (< (- t_B_ra_rb_gb9_2 t_A_ra_ga7_gb1_1) 5) ?v_197) (or (< ?v_351 5) (> ?v_351 5)) (or (< (- t_B_ra_rb_gb8_2 t_A_ra_ga7_gb1_1) 5) ?v_197) (or (< ?v_352 5) (> ?v_352 5)) (or (< (- t_B_ra_rb_gb7_2 t_A_ra_ga7_gb1_1) 5) ?v_197) (or ?v_353 ?v_124) (or ?v_354 ?v_355) (or (> ?v_356 5) (< ?v_356 5)) (or (> ?v_357 5) (< ?v_357 5)) (or (> ?v_358 5) (< ?v_358 5)) ?v_167 ?v_168 ?v_169 ?v_175 ?v_247 ?v_248 ?v_249 ?v_250 (or ?v_194 (< (- t_B_ra_rb_gb7_2 t_A_ra_ga10_gb1_1) 5)) (or ?v_195 (< (- t_B_ra_rb_gb7_2 t_A_ra_ga9_gb1_1) 5)) (or ?v_196 (< (- t_B_ra_rb_gb7_2 t_A_ra_ga8_gb1_1) 5)) (or (< (- t_C_rb_ga1_gc10_3 t_B_ra_rb_gb7_2) 4) ?v_139) (or (< ?v_359 4) (> ?v_359 4)) (or (< (- t_C_rb_ga1_gc9_3 t_B_ra_rb_gb7_2) 4) ?v_139) (or (< ?v_360 4) (> ?v_360 4)) (or (< (- t_C_rb_ga1_gc8_3 t_B_ra_rb_gb7_2) 4) ?v_139) (or (< ?v_361 4) (> ?v_361 4)) (or (< (- t_C_rb_ga1_gc7_3 t_B_ra_rb_gb7_2) 4) ?v_139) (or ?v_362 ?v_363) (or (> ?v_364 4) (< ?v_364 4)) (or (> ?v_365 4) (< ?v_365 4)) (or (> ?v_366 4) (< ?v_366 4)) ?v_108 ?v_109 ?v_110 ?v_220 ?v_221 ?v_222 ?v_223 (or ?v_136 (< (- t_C_rb_ga1_gc7_3 t_B_ra_rb_gb10_2) 4)) (or ?v_137 (< (- t_C_rb_ga1_gc7_3 t_B_ra_rb_gb9_2) 4)) (or ?v_138 (< (- t_C_rb_ga1_gc7_3 t_B_ra_rb_gb8_2) 4)) (or ?v_367 ?v_182) (or (< ?v_123 5) ?v_196) (or (< (- t_B_ra_rb_gb10_2 t_A_ra_ga8_gb1_1) 5) ?v_196) (or (< ?v_368 5) (> ?v_368 5)) (or (< (- t_B_ra_rb_gb9_2 t_A_ra_ga8_gb1_1) 5) ?v_196) (or (< ?v_369 5) (> ?v_369 5)) (or (< (- t_B_ra_rb_gb8_2 t_A_ra_ga8_gb1_1) 5) ?v_196) (or ?v_370 ?v_122) (or ?v_371 ?v_372) (or (> ?v_373 5) (< ?v_373 5)) (or (> ?v_374 5) (< ?v_374 5)) ?v_167 ?v_168 ?v_175 ?v_247 ?v_248 ?v_249 (or ?v_194 (< (- t_B_ra_rb_gb8_2 t_A_ra_ga10_gb1_1) 5)) (or ?v_195 (< (- t_B_ra_rb_gb8_2 t_A_ra_ga9_gb1_1) 5)) (or (< (- t_C_rb_ga1_gc10_3 t_B_ra_rb_gb8_2) 4) ?v_138) (or (< ?v_375 4) (> ?v_375 4)) (or (< (- t_C_rb_ga1_gc9_3 t_B_ra_rb_gb8_2) 4) ?v_138) (or (< ?v_376 4) (> ?v_376 4)) (or (< (- t_C_rb_ga1_gc8_3 t_B_ra_rb_gb8_2) 4) ?v_138) (or ?v_377 ?v_378) (or (> ?v_379 4) (< ?v_379 4)) (or (> ?v_380 4) (< ?v_380 4)) ?v_108 ?v_109 ?v_220 ?v_221 ?v_222 (or ?v_136 (< (- t_C_rb_ga1_gc8_3 t_B_ra_rb_gb10_2) 4)) (or ?v_137 (< (- t_C_rb_ga1_gc8_3 t_B_ra_rb_gb9_2) 4)) (or ?v_381 ?v_180) (or (< ?v_121 5) ?v_195) (or (< (- t_B_ra_rb_gb10_2 t_A_ra_ga9_gb1_1) 5) ?v_195) (or (< ?v_382 5) (> ?v_382 5)) (or (< (- t_B_ra_rb_gb9_2 t_A_ra_ga9_gb1_1) 5) ?v_195) (or ?v_383 ?v_120) (or ?v_384 ?v_385) (or (> ?v_386 5) (< ?v_386 5)) ?v_167 ?v_175 ?v_247 ?v_248 (or ?v_194 (< (- t_B_ra_rb_gb9_2 t_A_ra_ga10_gb1_1) 5)) (or (< (- t_C_rb_ga1_gc10_3 t_B_ra_rb_gb9_2) 4) ?v_137) (or (< ?v_387 4) (> ?v_387 4)) (or (< (- t_C_rb_ga1_gc9_3 t_B_ra_rb_gb9_2) 4) ?v_137) (or ?v_388 ?v_389) (or (> ?v_390 4) (< ?v_390 4)) ?v_108 ?v_220 ?v_221 (or ?v_136 (< (- t_C_rb_ga1_gc9_3 t_B_ra_rb_gb10_2) 4)) (or ?v_391 ?v_178) (or (< ?v_119 5) ?v_194) (or (< (- t_B_ra_rb_gb10_2 t_A_ra_ga10_gb1_1) 5) ?v_194) (or ?v_392 ?v_118) (or ?v_393 ?v_394) ?v_175 ?v_247 (or (< (- t_C_rb_ga1_gc10_3 t_B_ra_rb_gb10_2) 4) ?v_136) (or ?v_395 ?v_396) ?v_175 ?v_247)))))))))))))))))))))))))))))))))))))))))))))))))))))))))))))))))))))))))))))))))))))))))))))))))))))))))))))))
(check-sat)
(exit)
